% File represents an instance of a Composite Structure problem to be solved by a CP framework
% Created on 2025-03-25 14:06:10.260
T = 32;
n = 4;
m = 4;
edges = [(1, 2),
(3, 4),
(1, 3),
(2, 4)];
counts = [|6, 10, 6, 10,
|4, 6, 4, 8,
|6, 8, 6, 4,
|2, 6, 2, 4|];
